code/experiments/eil51_sub/eil51_n15.tsp
NAME : eil51_n15
COMMENT : 15-city problem (Christofides/Eilon)
TYPE : TSP
DIMENSION : 15
EDGE_WEIGHT_TYPE : CEIL_2D
NODE_COORD_SECTION
1 49 49
2 52 64
3 52 41
4 62 42
5 42 57
6 7 38
7 27 68
8 43 67
9 58 27
10 38 46
11 62 63
12 5 6
13 32 39
14 25 55
15 48 28
EOF
