code/experiments/eil51_sub/eil51_n15.opt.tour
15
0 2 14 8 3 10 1 7 6 13 
5 11 12 9 4 
